p cnf 91 377
-4 -61 -63 78 82 84 0
40 45 46 55 60 -87 0
3 19 23 -50 51 0
4 49 -50 68 -91 0
4 -50 -51 68 -91 0
7 45 -48 55 64 0
9 46 -47 55 64 0
10 -21 22 69 -77 0
12 13 -73 78 79 0
-19 -51 85 -89 91 0
20 21 22 -69 88 0
-50 66 -67 86 89 0
1 45 46 60 -87 0
7 8 -47 55 60 0
52 -61 -63 -78 -84 0
1 2 24 -32 0
1 -19 -23 -60 0
1 24 -32 59 0
-2 -5 -6 35 0
-2 -5 -6 61 0
3 -51 68 -89 0
-3 -16 -50 -51 0
-3 51 68 -89 0
-3 51 -68 -89 0
4 23 -51 59 0
4 49 -68 -91 0
-6 37 74 82 0
7 40 -43 45 0
-7 -8 -42 -60 0
8 9 -48 55 0
-8 -45 48 -55 0
10 11 -27 -28 0
10 11 -28 -31 0
10 21 22 -72 0
-10 -26 28 57 0
11 12 15 58 0
11 58 -76 -80 0
-11 -14 76 80 0
12 -19 -28 57 0
12 -19 79 80 0
12 26 -28 34 0
13 -31 -73 79 0
-14 -15 57 58 0
-14 -73 78 -79 0
17 22 -44 77 0
-17 22 71 -72 0
-18 -19 -38 -54 0
-18 -19 -60 -69 0
19 23 -33 -76 0
-19 -23 79 84 0
20 22 41 -72 0
20 -38 71 -72 0
-21 -69 70 88 0
24 -35 56 -61 0
-27 -33 34 -56 0
-31 -73 -78 -79 0
36 37 62 -63 0
36 63 -74 82 0
-50 -66 86 89 0
1 23 60 69 0
-3 -16 -51 -89 0
-3 49 -50 68 0
-4 78 -79 84 0
-5 52 -63 84 0
-7 -42 -60 83 0
10 26 -28 -31 0
10 -27 -28 34 0
12 13 57 58 0
-14 58 -78 79 0
15 -29 30 58 0
-15 -31 57 -80 0
-18 46 -47 -64 0
19 23 -68 -91 0
19 23 74 -75 0
-19 -23 -81 -85 0
-19 85 -86 91 0
20 21 70 -77 0
22 -41 -44 -72 0
42 45 -60 -87 0
42 46 60 83 0
-49 68 90 -91 0
-66 86 89 90 0
1 17 23 0
-1 -8 -83 0
-1 14 20 0
-1 24 -59 0
-1 27 32 0
2 3 56 0
2 5 65 0
3 16 32 0
3 50 -68 0
-3 16 49 0
4 59 61 0
6 -37 63 0
7 8 -47 0
-7 -8 -45 0
-7 83 -88 0
-8 9 46 0
-8 -9 -46 0
-8 42 -83 0
-8 -42 88 0
-8 -46 47 0
10 26 34 0
-10 24 59 0
11 -26 -31 0
-11 30 -57 0
-12 -79 91 0
13 -31 57 0
13 -79 84 0
-13 -67 86 0
-13 -85 90 0
-16 -19 -89 0
-17 -18 -40 0
-17 44 -77 0
18 39 54 0
-18 -39 -55 0
19 38 39 0
19 -51 59 0
-19 -53 -72 0
-20 -22 70 0
-20 69 70 0
21 23 -88 0
21 -42 88 0
22 53 71 0
23 -30 -36 0
23 32 36 0
23 -43 87 0
-23 25 30 0
-23 -25 -28 0
-23 81 -89 0
24 35 -59 0
-24 -25 -26 0
25 27 56 0
25 29 30 0
25 32 33 0
25 -32 59 0
25 33 76 0
25 65 74 0
25 75 76 0
-25 26 -30 0
26 -33 -34 0
28 -33 -57 0
-38 53 70 0
-39 -44 -60 0
-39 -48 -54 0
40 43 87 0
40 55 -87 0
41 -54 -70 0
46 -48 -64 0
49 67 -68 0
49 85 -86 0
51 68 -85 0
51 -68 -86 0
51 -86 91 0
52 62 84 0
-56 -61 -62 0
-61 65 82 0
66 67 -90 0
66 89 90 0
-66 -86 -90 0
-74 -75 76 0
78 79 -84 0
-89 90 -91 0
7 45 -48 64 0
-8 46 48 55 0
1 27 0
1 59 0
1 -83 0
1 88 0
-1 8 0
-1 -11 0
-1 -29 0
-1 33 0
-1 50 0
-1 62 0
-1 -90 0
2 -32 0
2 -43 0
-2 19 0
-2 62 0
-2 74 0
-2 82 0
3 8 0
3 24 0
3 -33 0
3 -51 0
3 89 0
-3 -16 0
-3 -23 0
-3 -47 0
-3 50 0
-3 -68 0
-3 78 0
-3 91 0
4 8 0
4 10 0
4 16 0
4 -48 0
4 51 0
4 -52 0
4 -53 0
4 -66 0
4 78 0
4 82 0
4 -82 0
4 89 0
-4 -52 0
-4 67 0
-4 -84 0
5 -19 0
5 -52 0
5 -62 0
5 63 0
5 -78 0
5 -82 0
-5 -33 0
-5 78 0
-5 82 0
6 35 0
6 41 0
6 -62 0
6 -82 0
-6 -24 0
-6 -35 0
-6 -63 0
7 40 0
7 42 0
7 50 0
-7 -48 0
-7 87 0
-7 -88 0
8 9 0
8 -46 0
8 -70 0
-8 -9 0
-8 -19 0
-8 -70 0
-8 87 0
9 40 0
9 -43 0
9 -47 0
9 -48 0
9 64 0
-9 43 0
-9 -45 0
-9 -46 0
10 -13 0
10 -34 0
10 -58 0
10 -60 0
10 -61 0
10 -70 0
10 -72 0
10 83 0
-10 -11 0
-10 -12 0
-10 27 0
-10 -31 0
-10 -34 0
-10 -36 0
-10 60 0
-10 -70 0
-10 -88 0
11 12 0
11 14 0
11 -19 0
11 63 0
-11 31 0
12 26 0
12 -27 0
12 28 0
12 34 0
12 37 0
12 -73 0
12 -79 0
-12 -13 0
-12 31 0
-12 -58 0
-12 73 0
-12 78 0
-12 -78 0
13 49 0
13 51 0
13 -79 0
13 89 0
13 -91 0
-13 -47 0
-13 -50 0
-13 81 0
14 31 0
14 -57 0
14 -58 0
14 73 0
14 78 0
14 -79 0
-14 73 0
15 25 0
15 31 0
15 -57 0
15 -58 0
-15 29 0
-15 -30 0
-15 80 0
16 50 0
17 18 0
17 19 0
17 40 0
17 44 0
-17 -58 0
-17 70 0
18 21 0
18 41 0
18 47 0
18 64 0
-18 -39 0
-18 -77 0
-18 81 0
-18 91 0
19 -36 0
19 41 0
19 42 0
19 47 0
19 54 0
19 56 0
19 60 0
19 64 0
19 -65 0
19 -67 0
19 68 0
19 69 0
19 75 0
19 -80 0
-19 -24 0
-19 25 0
-19 31 0
-19 -34 0
-19 -40 0
-19 -41 0
-19 -47 0
-19 -51 0
-19 52 0
-19 -56 0
-19 57 0
-19 67 0
-19 71 0
-19 -72 0
-19 -79 0
-19 83 0
-19 -84 0
-19 86 0
-19 89 0
20 -41 0
20 -54 0
-20 -21 0
-20 72 0
-20 77 0
-20 -77 0
-20 83 0
21 -72 0
-21 -72 0
22 -53 0
22 -69 0
22 88 0
-22 41 0
-22 -41 0
-22 -71 0
-22 -88 0
23 27 0
23 -27 0
23 28 0
23 41 0
23 42 0
23 47 0
23 54 0
23 64 0
23 -65 0
23 -74 0
